NAME : prob25e.6754.tour
COMMENT : Cost = 0_6754
COMMENT : Found by LKH [Keld Helsgaun] Sun Sep 17 01:06:30 2017
TYPE : TOUR
DIMENSION : 51
TOUR_SECTION
1
36
43
44
11
48
40
42
29
35
49
50
45
47
31
27
19
39
17
25
51
6
37
12
4
34
46
14
41
38
26
24
32
10
21
18
13
33
2
22
28
9
20
16
15
3
8
30
7
5
23
-1
EOF
